proyfinal/src/viki/013/experimentInOfficeAgust.take6.output/5753c483-88a2-4a73-941c-c798b13c90f0.als.out
Reading from standard input... Use '--help' for help.
============================[ Problem Statistics ]=============================
|                                                                             |
|  Number of variables:         87638                                         |
|  Number of clauses:          161767                                         |
|  Parse time:                   0.02 s                                       |
|                                                                             |
============================[ Search Statistics ]==============================
| Conflicts |          ORIGINAL         |          LEARNT          | Progress |
|           |    Vars  Clauses Literals |    Limit  Clauses Lit/Cl |          |
===============================================================================
|       100 |   63787   110213   275641 |    40411      100      7 | 27.215 % |
|       250 |   63787   110213   275641 |    44452      250     14 | 27.215 % |
|       475 |   63768   110137   275465 |    48897      474     48 | 27.237 % |
|       812 |   63763   110121   275421 |    53787      754     72 | 27.243 % |
|      1318 |   63759   110061   275287 |    59166     1250     75 | 27.247 % |
|      2077 |   63759   110061   275287 |    65083     2009     73 | 27.248 % |
|      3216 |   63740   109985   275111 |    71591     2479     72 | 27.269 % |
|      4924 |   63740   109985   275111 |    78750     4187     76 | 27.269 % |
|      7486 |   48005    63454   160495 |    86625     5830     86 | 45.224 % |
===============================================================================
restarts              : 47
conflicts             : 11282          (6452 /sec)
decisions             : 34640          (0.00 % random) (19810 /sec)
propagations          : 17850629       (10208532 /sec)
conflict literals     : 799310         (51.07 % deleted)
Memory used           : 28.59 MB
CPU time              : 1.7486 s

UNSATISFIABLE
